
(set-logic ALL) 

(declare-datatype MyList ((Nil) (Cons (head Real) (tail MyList)) )) 
(declare-fun l0 () MyList) 
(declare-fun l1 () MyList) 
(declare-fun l2 () MyList) 
(declare-fun l3 () MyList) 
(declare-fun i0 () Real) 
(declare-fun i1 () Real) 
(assert (= l3 Nil) )
(assert (and (is-Nil l1) (is-Nil l1)) )
(assert (and (= l3 Nil) (is-Nil Nil) (= l3 l0)) )
(assert (not (= l3 Nil)) )
(assert (not (= l2 Nil)) )
(assert (or (= l3 Nil) (is-Nil l1) (is-Cons l2)) )
(assert (and (is-Cons l1) (= l1 Nil) (is-Cons Nil)) )
(assert (and (= l2 l1) (= l3 Nil)) )
(check-sat)
